Test: chnl11_13.cnf
Options: -print-activity -no-inverting-opt -activity-look-freq=1
WARNING: for repeatability, setting FPU to use double precision
============================[ Problem Statistics ]=============================
|                                                                             |
|  Number of symmetries:           45                                         |
|  Number of invertingSyms:         0                                         |
|  Number of variables:           286                                         |
|  Number of clauses:            1742                                         |
|  Parse time:                   0.00 s                                       |
|                                                                             |
============================[ Search Statistics ]==============================
| Conflicts |          ORIGINAL         |          LEARNT          | Progress |
|           |    Vars  Clauses Literals |    Limit  Clauses Lit/Cl |          |
===============================================================================
ActiveSyms: 45
ActiveSyms: 42
ActiveSyms: 42
ActiveSyms: 42
ActiveSyms: 42
ActiveSyms: 42
ActiveSyms: 40
ActiveSyms: 40
ActiveSyms: 40
ActiveSyms: 40
ActiveSyms: 40
ActiveSyms: 40
ActiveSyms: 40
ActiveSyms: 40
ActiveSyms: 40
ActiveSyms: 39
ActiveSyms: 37
ActiveSyms: 37
ActiveSyms: 37
ActiveSyms: 37
ActiveSyms: 37
ActiveSyms: 37
ActiveSyms: 37
ActiveSyms: 37
ActiveSyms: 38
ActiveSyms: 36
ActiveSyms: 36
ActiveSyms: 36
ActiveSyms: 36
ActiveSyms: 36
ActiveSyms: 36
ActiveSyms: 36
ActiveSyms: 35
ActiveSyms: 33
ActiveSyms: 33
ActiveSyms: 33
ActiveSyms: 33
ActiveSyms: 33
ActiveSyms: 33
ActiveSyms: 32
ActiveSyms: 30
ActiveSyms: 30
ActiveSyms: 30
ActiveSyms: 30
ActiveSyms: 30
ActiveSyms: 30
ActiveSyms: 29
ActiveSyms: 29
ActiveSyms: 28
ActiveSyms: 28
ActiveSyms: 27
ActiveSyms: 26
ActiveSyms: 26
ActiveSyms: 26
ActiveSyms: 25
ActiveSyms: 24
ActiveSyms: 24
ActiveSyms: 24
ActiveSyms: 23
ActiveSyms: 23
ActiveSyms: 22
ActiveSyms: 22
ActiveSyms: 21
ActiveSyms: 22
ActiveSyms: 24
ActiveSyms: 24
ActiveSyms: 25
ActiveSyms: 27
ActiveSyms: 30
ActiveSyms: 32
ActiveSyms: 35
ActiveSyms: 38
ActiveSyms: 39
ActiveSyms: 45
===============================================================================
restarts              : 1
conflicts             : 12             (3000 /sec)
symconflicts          : 4              (1000 /sec)
decisions             : 62             (0.00 % random) (15500 /sec)
propagations          : 947            (236750 /sec)
sympropagations       : 132            (33000 /sec)
conflict literals     : 257            (0.00 % deleted)
literals     : 257            (0.00 % deleted)

HEURISTIC USAGES
random                : 0           
activity w/ lookahead : 62          
activity no lookahead : 0           
original sp           : 0           
sym count             : 0           

Memory used           : 5.00 MB
CPU time              : 0.004 s

UNSATISFIABLE
